50

99 30 259
96 20 544
95 23 249
95 19 563
92 21 539
91 12 402
90 20 435
86 4 436
86 10 683
86 6 702
85 8 348
80 15 351
77 16 243
77 10 630
76 21 342
76 6 385
71 1 494
70 7 606
70 21 696
69 5 419
68 16 516
64 12 696
64 5 667
61 10 636
60 9 724
60 7 342
56 10 562
55 17 634
53 16 546
52 4 419
50 15 434
48 15 254
44 8 706
41 10 388
40 3 688
38 12 495
38 2 255
37 1 583
35 4 581
21 4 351
19 3 638
14 4 317
12 4 667
9 2 374
6 2 356
6 1 445
6 1 670
4 1 277
3 1 280
2 1 738
